p cnf 396 1342
c p weight -157 1 0
c p weight 157 -1 0
c p weight 161 6.12323399573676603586882014729198302312846062338790031898128063403419218957424163818359375E-17 0
c p weight -161 1 0
c p weight 162 1 0
c p weight -162 1 0
c p weight -159 1 0
c p weight 159 -1 0
c p weight -163 1 0
c p weight 163 -1 0
c p weight -165 1 0
c p weight 165 -1 0
c p weight -168 1 0
c p weight 168 -1 0
c p weight -171 1 0
c p weight 171 -1 0
c p weight -174 1 0
c p weight 174 -1 0
c p weight -177 1 0
c p weight 177 -1 0
c p weight -180 1 0
c p weight 180 -1 0
c p weight -183 1 0
c p weight 183 -1 0
c p weight -186 1 0
c p weight 186 -1 0
c p weight -189 1 0
c p weight 189 -1 0
c p weight -192 1 0
c p weight 192 -1 0
c p weight -195 1 0
c p weight 195 -1 0
c p weight -198 1 0
c p weight 198 -1 0
c p weight -201 1 0
c p weight 201 -1 0
c p weight -204 1 0
c p weight 204 -1 0
c p weight -207 1 0
c p weight 207 -1 0
c p weight -210 1 0
c p weight 210 -1 0
c p weight -213 1 0
c p weight 213 -1 0
c p weight -216 1 0
c p weight 216 -1 0
c p weight -219 1 0
c p weight 219 -1 0
c p weight -222 1 0
c p weight 222 -1 0
c p weight -225 1 0
c p weight 225 -1 0
c p weight -228 1 0
c p weight 228 -1 0
c p weight -231 1 0
c p weight 231 -1 0
c p weight -234 1 0
c p weight 234 -1 0
c p weight -237 1 0
c p weight 237 -1 0
c p weight -240 1 0
c p weight 240 -1 0
c p weight -243 1 0
c p weight 243 -1 0
c p weight -246 1 0
c p weight 246 -1 0
c p weight -249 1 0
c p weight 249 -1 0
c p weight -252 1 0
c p weight 252 -1 0
c p weight -255 1 0
c p weight 255 -1 0
c p weight -258 1 0
c p weight 258 -1 0
c p weight -261 1 0
c p weight 261 -1 0
c p weight -264 1 0
c p weight 264 -1 0
c p weight -267 1 0
c p weight 267 -1 0
c p weight -270 1 0
c p weight 270 -1 0
c p weight -273 1 0
c p weight 273 -1 0
c p weight -276 1 0
c p weight 276 -1 0
c p weight -279 1 0
c p weight 279 -1 0
c p weight -282 1 0
c p weight 282 -1 0
c p weight -285 1 0
c p weight 285 -1 0
c p weight -288 1 0
c p weight 288 -1 0
c p weight -291 1 0
c p weight 291 -1 0
c p weight -294 1 0
c p weight 294 -1 0
c p weight -297 1 0
c p weight 297 -1 0
c p weight -300 1 0
c p weight 300 -1 0
c p weight -303 1 0
c p weight 303 -1 0
c p weight -306 1 0
c p weight 306 -1 0
c p weight -309 1 0
c p weight 309 -1 0
c p weight -312 1 0
c p weight 312 -1 0
c p weight -315 1 0
c p weight 315 -1 0
c p weight -318 1 0
c p weight 318 -1 0
c p weight -321 1 0
c p weight 321 -1 0
c p weight -324 1 0
c p weight 324 -1 0
c p weight -327 1 0
c p weight 327 -1 0
c p weight -330 1 0
c p weight 330 -1 0
c p weight -333 1 0
c p weight 333 -1 0
c p weight -336 1 0
c p weight 336 -1 0
c p weight -339 1 0
c p weight 339 -1 0
c p weight -342 1 0
c p weight 342 -1 0
c p weight -345 1 0
c p weight 345 -1 0
c p weight -348 1 0
c p weight 348 -1 0
c p weight -351 1 0
c p weight 351 -1 0
c p weight -354 1 0
c p weight 354 -1 0
c p weight -357 1 0
c p weight 357 -1 0
c p weight -360 1 0
c p weight 360 -1 0
c p weight -363 1 0
c p weight 363 -1 0
c p weight -366 1 0
c p weight 366 -1 0
c p weight -369 1 0
c p weight 369 -1 0
c p weight -372 1 0
c p weight 372 -1 0
c p weight -375 1 0
c p weight 375 -1 0
c p weight -378 1 0
c p weight 378 -1 0
c p weight -381 1 0
c p weight 381 -1 0
c p weight -384 1 0
c p weight 384 -1 0
c p weight -387 1 0
c p weight 387 -1 0
c p weight -390 1 0
c p weight 390 -1 0
c p weight -393 1 0
c p weight 393 -1 0
c p weight 396 0.5 0
c p weight -396 1 0
396 0
-155 0
-153 0
-151 0
-149 0
-147 0
-145 0
-143 0
-141 0
-139 0
-137 0
-135 0
-133 0
-131 0
-129 0
-127 0
-125 0
-123 0
-121 0
-119 0
-117 0
-115 0
-113 0
-111 0
-109 0
-107 0
-105 0
-103 0
-101 0
-99 0
-97 0
-95 0
-93 0
-91 0
-89 0
-87 0
-85 0
-83 0
-81 0
-79 0
-77 0
-75 0
-73 0
-71 0
-69 0
-67 0
-65 0
-63 0
-61 0
-59 0
-57 0
-55 0
-53 0
-51 0
-49 0
-47 0
-45 0
-43 0
-41 0
-39 0
-37 0
-35 0
-33 0
-31 0
-29 0
-27 0
-25 0
-23 0
-21 0
-19 0
-17 0
-15 0
-13 0
-11 0
-9 0
-7 0
-5 0
-3 0
-1 0
-157 155 0
-157 156 0
157 -155 -156 0
158 155 -156 0
158 -155 156 0
-158 155 156 0
-158 -155 -156 0
-159 160 0
-159 158 0
-159 -155 0
159 -160 155 -158 0
160 -155 158 0
-160 155 158 0
-161 158 0
160 -161 -155 0
-160 -161 155 0
160 161 155 -158 0
-160 161 -155 -158 0
-162 158 0
160 -162 155 0
-160 -162 -155 0
160 162 -155 -158 0
-160 162 155 -158 0
-163 160 0
-163 158 0
163 -160 -158 0
164 160 -158 0
164 -160 158 0
-164 160 158 0
-164 -160 -158 0
-165 160 0
-165 154 0
-165 153 -164 0
-165 -153 164 0
165 -160 153 164 -154 0
165 -160 -153 -164 -154 0
167 160 -153 0
167 -160 153 0
-167 160 153 0
-167 -160 -153 0
166 164 -154 0
166 -164 154 0
-166 164 154 0
-166 -164 -154 0
-168 167 0
-168 152 0
-168 151 -154 0
-168 -151 154 0
168 -167 151 154 -152 0
168 -167 -151 -154 -152 0
170 167 -151 0
170 -167 151 0
-170 167 151 0
-170 -167 -151 0
169 154 -152 0
169 -154 152 0
-169 154 152 0
-169 -154 -152 0
-171 170 0
-171 150 0
-171 149 -152 0
-171 -149 152 0
171 -170 149 152 -150 0
171 -170 -149 -152 -150 0
173 170 -149 0
173 -170 149 0
-173 170 149 0
-173 -170 -149 0
172 152 -150 0
172 -152 150 0
-172 152 150 0
-172 -152 -150 0
-174 173 0
-174 148 0
-174 147 -150 0
-174 -147 150 0
174 -173 147 150 -148 0
174 -173 -147 -150 -148 0
176 173 -147 0
176 -173 147 0
-176 173 147 0
-176 -173 -147 0
175 150 -148 0
175 -150 148 0
-175 150 148 0
-175 -150 -148 0
-177 176 0
-177 146 0
-177 145 -148 0
-177 -145 148 0
177 -176 145 148 -146 0
177 -176 -145 -148 -146 0
179 176 -145 0
179 -176 145 0
-179 176 145 0
-179 -176 -145 0
178 148 -146 0
178 -148 146 0
-178 148 146 0
-178 -148 -146 0
-180 179 0
-180 144 0
-180 143 -146 0
-180 -143 146 0
180 -179 143 146 -144 0
180 -179 -143 -146 -144 0
182 179 -143 0
182 -179 143 0
-182 179 143 0
-182 -179 -143 0
181 146 -144 0
181 -146 144 0
-181 146 144 0
-181 -146 -144 0
-183 182 0
-183 142 0
-183 141 -144 0
-183 -141 144 0
183 -182 141 144 -142 0
183 -182 -141 -144 -142 0
185 182 -141 0
185 -182 141 0
-185 182 141 0
-185 -182 -141 0
184 144 -142 0
184 -144 142 0
-184 144 142 0
-184 -144 -142 0
-186 185 0
-186 140 0
-186 139 -142 0
-186 -139 142 0
186 -185 139 142 -140 0
186 -185 -139 -142 -140 0
188 185 -139 0
188 -185 139 0
-188 185 139 0
-188 -185 -139 0
187 142 -140 0
187 -142 140 0
-187 142 140 0
-187 -142 -140 0
-189 188 0
-189 138 0
-189 137 -140 0
-189 -137 140 0
189 -188 137 140 -138 0
189 -188 -137 -140 -138 0
191 188 -137 0
191 -188 137 0
-191 188 137 0
-191 -188 -137 0
190 140 -138 0
190 -140 138 0
-190 140 138 0
-190 -140 -138 0
-192 191 0
-192 136 0
-192 135 -138 0
-192 -135 138 0
192 -191 135 138 -136 0
192 -191 -135 -138 -136 0
194 191 -135 0
194 -191 135 0
-194 191 135 0
-194 -191 -135 0
193 138 -136 0
193 -138 136 0
-193 138 136 0
-193 -138 -136 0
-195 194 0
-195 134 0
-195 133 -136 0
-195 -133 136 0
195 -194 133 136 -134 0
195 -194 -133 -136 -134 0
197 194 -133 0
197 -194 133 0
-197 194 133 0
-197 -194 -133 0
196 136 -134 0
196 -136 134 0
-196 136 134 0
-196 -136 -134 0
-198 197 0
-198 132 0
-198 131 -134 0
-198 -131 134 0
198 -197 131 134 -132 0
198 -197 -131 -134 -132 0
200 197 -131 0
200 -197 131 0
-200 197 131 0
-200 -197 -131 0
199 134 -132 0
199 -134 132 0
-199 134 132 0
-199 -134 -132 0
-201 200 0
-201 130 0
-201 129 -132 0
-201 -129 132 0
201 -200 129 132 -130 0
201 -200 -129 -132 -130 0
203 200 -129 0
203 -200 129 0
-203 200 129 0
-203 -200 -129 0
202 132 -130 0
202 -132 130 0
-202 132 130 0
-202 -132 -130 0
-204 203 0
-204 128 0
-204 127 -130 0
-204 -127 130 0
204 -203 127 130 -128 0
204 -203 -127 -130 -128 0
206 203 -127 0
206 -203 127 0
-206 203 127 0
-206 -203 -127 0
205 130 -128 0
205 -130 128 0
-205 130 128 0
-205 -130 -128 0
-207 206 0
-207 126 0
-207 125 -128 0
-207 -125 128 0
207 -206 125 128 -126 0
207 -206 -125 -128 -126 0
209 206 -125 0
209 -206 125 0
-209 206 125 0
-209 -206 -125 0
208 128 -126 0
208 -128 126 0
-208 128 126 0
-208 -128 -126 0
-210 209 0
-210 124 0
-210 123 -126 0
-210 -123 126 0
210 -209 123 126 -124 0
210 -209 -123 -126 -124 0
212 209 -123 0
212 -209 123 0
-212 209 123 0
-212 -209 -123 0
211 126 -124 0
211 -126 124 0
-211 126 124 0
-211 -126 -124 0
-213 212 0
-213 122 0
-213 121 -124 0
-213 -121 124 0
213 -212 121 124 -122 0
213 -212 -121 -124 -122 0
215 212 -121 0
215 -212 121 0
-215 212 121 0
-215 -212 -121 0
214 124 -122 0
214 -124 122 0
-214 124 122 0
-214 -124 -122 0
-216 215 0
-216 120 0
-216 119 -122 0
-216 -119 122 0
216 -215 119 122 -120 0
216 -215 -119 -122 -120 0
218 215 -119 0
218 -215 119 0
-218 215 119 0
-218 -215 -119 0
217 122 -120 0
217 -122 120 0
-217 122 120 0
-217 -122 -120 0
-219 218 0
-219 118 0
-219 117 -120 0
-219 -117 120 0
219 -218 117 120 -118 0
219 -218 -117 -120 -118 0
221 218 -117 0
221 -218 117 0
-221 218 117 0
-221 -218 -117 0
220 120 -118 0
220 -120 118 0
-220 120 118 0
-220 -120 -118 0
-222 221 0
-222 116 0
-222 115 -118 0
-222 -115 118 0
222 -221 115 118 -116 0
222 -221 -115 -118 -116 0
224 221 -115 0
224 -221 115 0
-224 221 115 0
-224 -221 -115 0
223 118 -116 0
223 -118 116 0
-223 118 116 0
-223 -118 -116 0
-225 224 0
-225 114 0
-225 113 -116 0
-225 -113 116 0
225 -224 113 116 -114 0
225 -224 -113 -116 -114 0
227 224 -113 0
227 -224 113 0
-227 224 113 0
-227 -224 -113 0
226 116 -114 0
226 -116 114 0
-226 116 114 0
-226 -116 -114 0
-228 227 0
-228 112 0
-228 111 -114 0
-228 -111 114 0
228 -227 111 114 -112 0
228 -227 -111 -114 -112 0
230 227 -111 0
230 -227 111 0
-230 227 111 0
-230 -227 -111 0
229 114 -112 0
229 -114 112 0
-229 114 112 0
-229 -114 -112 0
-231 230 0
-231 110 0
-231 109 -112 0
-231 -109 112 0
231 -230 109 112 -110 0
231 -230 -109 -112 -110 0
233 230 -109 0
233 -230 109 0
-233 230 109 0
-233 -230 -109 0
232 112 -110 0
232 -112 110 0
-232 112 110 0
-232 -112 -110 0
-234 233 0
-234 108 0
-234 107 -110 0
-234 -107 110 0
234 -233 107 110 -108 0
234 -233 -107 -110 -108 0
236 233 -107 0
236 -233 107 0
-236 233 107 0
-236 -233 -107 0
235 110 -108 0
235 -110 108 0
-235 110 108 0
-235 -110 -108 0
-237 236 0
-237 106 0
-237 105 -108 0
-237 -105 108 0
237 -236 105 108 -106 0
237 -236 -105 -108 -106 0
239 236 -105 0
239 -236 105 0
-239 236 105 0
-239 -236 -105 0
238 108 -106 0
238 -108 106 0
-238 108 106 0
-238 -108 -106 0
-240 239 0
-240 104 0
-240 103 -106 0
-240 -103 106 0
240 -239 103 106 -104 0
240 -239 -103 -106 -104 0
242 239 -103 0
242 -239 103 0
-242 239 103 0
-242 -239 -103 0
241 106 -104 0
241 -106 104 0
-241 106 104 0
-241 -106 -104 0
-243 242 0
-243 102 0
-243 101 -104 0
-243 -101 104 0
243 -242 101 104 -102 0
243 -242 -101 -104 -102 0
245 242 -101 0
245 -242 101 0
-245 242 101 0
-245 -242 -101 0
244 104 -102 0
244 -104 102 0
-244 104 102 0
-244 -104 -102 0
-246 245 0
-246 100 0
-246 99 -102 0
-246 -99 102 0
246 -245 99 102 -100 0
246 -245 -99 -102 -100 0
248 245 -99 0
248 -245 99 0
-248 245 99 0
-248 -245 -99 0
247 102 -100 0
247 -102 100 0
-247 102 100 0
-247 -102 -100 0
-249 248 0
-249 98 0
-249 97 -100 0
-249 -97 100 0
249 -248 97 100 -98 0
249 -248 -97 -100 -98 0
251 248 -97 0
251 -248 97 0
-251 248 97 0
-251 -248 -97 0
250 100 -98 0
250 -100 98 0
-250 100 98 0
-250 -100 -98 0
-252 251 0
-252 96 0
-252 95 -98 0
-252 -95 98 0
252 -251 95 98 -96 0
252 -251 -95 -98 -96 0
254 251 -95 0
254 -251 95 0
-254 251 95 0
-254 -251 -95 0
253 98 -96 0
253 -98 96 0
-253 98 96 0
-253 -98 -96 0
-255 254 0
-255 94 0
-255 93 -96 0
-255 -93 96 0
255 -254 93 96 -94 0
255 -254 -93 -96 -94 0
257 254 -93 0
257 -254 93 0
-257 254 93 0
-257 -254 -93 0
256 96 -94 0
256 -96 94 0
-256 96 94 0
-256 -96 -94 0
-258 257 0
-258 92 0
-258 91 -94 0
-258 -91 94 0
258 -257 91 94 -92 0
258 -257 -91 -94 -92 0
260 257 -91 0
260 -257 91 0
-260 257 91 0
-260 -257 -91 0
259 94 -92 0
259 -94 92 0
-259 94 92 0
-259 -94 -92 0
-261 260 0
-261 90 0
-261 89 -92 0
-261 -89 92 0
261 -260 89 92 -90 0
261 -260 -89 -92 -90 0
263 260 -89 0
263 -260 89 0
-263 260 89 0
-263 -260 -89 0
262 92 -90 0
262 -92 90 0
-262 92 90 0
-262 -92 -90 0
-264 263 0
-264 88 0
-264 87 -90 0
-264 -87 90 0
264 -263 87 90 -88 0
264 -263 -87 -90 -88 0
266 263 -87 0
266 -263 87 0
-266 263 87 0
-266 -263 -87 0
265 90 -88 0
265 -90 88 0
-265 90 88 0
-265 -90 -88 0
-267 266 0
-267 86 0
-267 85 -88 0
-267 -85 88 0
267 -266 85 88 -86 0
267 -266 -85 -88 -86 0
269 266 -85 0
269 -266 85 0
-269 266 85 0
-269 -266 -85 0
268 88 -86 0
268 -88 86 0
-268 88 86 0
-268 -88 -86 0
-270 269 0
-270 84 0
-270 83 -86 0
-270 -83 86 0
270 -269 83 86 -84 0
270 -269 -83 -86 -84 0
272 269 -83 0
272 -269 83 0
-272 269 83 0
-272 -269 -83 0
271 86 -84 0
271 -86 84 0
-271 86 84 0
-271 -86 -84 0
-273 272 0
-273 82 0
-273 81 -84 0
-273 -81 84 0
273 -272 81 84 -82 0
273 -272 -81 -84 -82 0
275 272 -81 0
275 -272 81 0
-275 272 81 0
-275 -272 -81 0
274 84 -82 0
274 -84 82 0
-274 84 82 0
-274 -84 -82 0
-276 275 0
-276 80 0
-276 79 -82 0
-276 -79 82 0
276 -275 79 82 -80 0
276 -275 -79 -82 -80 0
278 275 -79 0
278 -275 79 0
-278 275 79 0
-278 -275 -79 0
277 82 -80 0
277 -82 80 0
-277 82 80 0
-277 -82 -80 0
-279 278 0
-279 78 0
-279 77 -80 0
-279 -77 80 0
279 -278 77 80 -78 0
279 -278 -77 -80 -78 0
281 278 -77 0
281 -278 77 0
-281 278 77 0
-281 -278 -77 0
280 80 -78 0
280 -80 78 0
-280 80 78 0
-280 -80 -78 0
-282 281 0
-282 76 0
-282 75 -78 0
-282 -75 78 0
282 -281 75 78 -76 0
282 -281 -75 -78 -76 0
284 281 -75 0
284 -281 75 0
-284 281 75 0
-284 -281 -75 0
283 78 -76 0
283 -78 76 0
-283 78 76 0
-283 -78 -76 0
-285 284 0
-285 74 0
-285 73 -76 0
-285 -73 76 0
285 -284 73 76 -74 0
285 -284 -73 -76 -74 0
287 284 -73 0
287 -284 73 0
-287 284 73 0
-287 -284 -73 0
286 76 -74 0
286 -76 74 0
-286 76 74 0
-286 -76 -74 0
-288 287 0
-288 72 0
-288 71 -74 0
-288 -71 74 0
288 -287 71 74 -72 0
288 -287 -71 -74 -72 0
290 287 -71 0
290 -287 71 0
-290 287 71 0
-290 -287 -71 0
289 74 -72 0
289 -74 72 0
-289 74 72 0
-289 -74 -72 0
-291 290 0
-291 70 0
-291 69 -72 0
-291 -69 72 0
291 -290 69 72 -70 0
291 -290 -69 -72 -70 0
293 290 -69 0
293 -290 69 0
-293 290 69 0
-293 -290 -69 0
292 72 -70 0
292 -72 70 0
-292 72 70 0
-292 -72 -70 0
-294 293 0
-294 68 0
-294 67 -70 0
-294 -67 70 0
294 -293 67 70 -68 0
294 -293 -67 -70 -68 0
296 293 -67 0
296 -293 67 0
-296 293 67 0
-296 -293 -67 0
295 70 -68 0
295 -70 68 0
-295 70 68 0
-295 -70 -68 0
-297 296 0
-297 66 0
-297 65 -68 0
-297 -65 68 0
297 -296 65 68 -66 0
297 -296 -65 -68 -66 0
299 296 -65 0
299 -296 65 0
-299 296 65 0
-299 -296 -65 0
298 68 -66 0
298 -68 66 0
-298 68 66 0
-298 -68 -66 0
-300 299 0
-300 64 0
-300 63 -66 0
-300 -63 66 0
300 -299 63 66 -64 0
300 -299 -63 -66 -64 0
302 299 -63 0
302 -299 63 0
-302 299 63 0
-302 -299 -63 0
301 66 -64 0
301 -66 64 0
-301 66 64 0
-301 -66 -64 0
-303 302 0
-303 62 0
-303 61 -64 0
-303 -61 64 0
303 -302 61 64 -62 0
303 -302 -61 -64 -62 0
305 302 -61 0
305 -302 61 0
-305 302 61 0
-305 -302 -61 0
304 64 -62 0
304 -64 62 0
-304 64 62 0
-304 -64 -62 0
-306 305 0
-306 60 0
-306 59 -62 0
-306 -59 62 0
306 -305 59 62 -60 0
306 -305 -59 -62 -60 0
308 305 -59 0
308 -305 59 0
-308 305 59 0
-308 -305 -59 0
307 62 -60 0
307 -62 60 0
-307 62 60 0
-307 -62 -60 0
-309 308 0
-309 58 0
-309 57 -60 0
-309 -57 60 0
309 -308 57 60 -58 0
309 -308 -57 -60 -58 0
311 308 -57 0
311 -308 57 0
-311 308 57 0
-311 -308 -57 0
310 60 -58 0
310 -60 58 0
-310 60 58 0
-310 -60 -58 0
-312 311 0
-312 56 0
-312 55 -58 0
-312 -55 58 0
312 -311 55 58 -56 0
312 -311 -55 -58 -56 0
314 311 -55 0
314 -311 55 0
-314 311 55 0
-314 -311 -55 0
313 58 -56 0
313 -58 56 0
-313 58 56 0
-313 -58 -56 0
-315 314 0
-315 54 0
-315 53 -56 0
-315 -53 56 0
315 -314 53 56 -54 0
315 -314 -53 -56 -54 0
317 314 -53 0
317 -314 53 0
-317 314 53 0
-317 -314 -53 0
316 56 -54 0
316 -56 54 0
-316 56 54 0
-316 -56 -54 0
-318 317 0
-318 52 0
-318 51 -54 0
-318 -51 54 0
318 -317 51 54 -52 0
318 -317 -51 -54 -52 0
320 317 -51 0
320 -317 51 0
-320 317 51 0
-320 -317 -51 0
319 54 -52 0
319 -54 52 0
-319 54 52 0
-319 -54 -52 0
-321 320 0
-321 50 0
-321 49 -52 0
-321 -49 52 0
321 -320 49 52 -50 0
321 -320 -49 -52 -50 0
323 320 -49 0
323 -320 49 0
-323 320 49 0
-323 -320 -49 0
322 52 -50 0
322 -52 50 0
-322 52 50 0
-322 -52 -50 0
-324 323 0
-324 48 0
-324 47 -50 0
-324 -47 50 0
324 -323 47 50 -48 0
324 -323 -47 -50 -48 0
326 323 -47 0
326 -323 47 0
-326 323 47 0
-326 -323 -47 0
325 50 -48 0
325 -50 48 0
-325 50 48 0
-325 -50 -48 0
-327 326 0
-327 46 0
-327 45 -48 0
-327 -45 48 0
327 -326 45 48 -46 0
327 -326 -45 -48 -46 0
329 326 -45 0
329 -326 45 0
-329 326 45 0
-329 -326 -45 0
328 48 -46 0
328 -48 46 0
-328 48 46 0
-328 -48 -46 0
-330 329 0
-330 44 0
-330 43 -46 0
-330 -43 46 0
330 -329 43 46 -44 0
330 -329 -43 -46 -44 0
332 329 -43 0
332 -329 43 0
-332 329 43 0
-332 -329 -43 0
331 46 -44 0
331 -46 44 0
-331 46 44 0
-331 -46 -44 0
-333 332 0
-333 42 0
-333 41 -44 0
-333 -41 44 0
333 -332 41 44 -42 0
333 -332 -41 -44 -42 0
335 332 -41 0
335 -332 41 0
-335 332 41 0
-335 -332 -41 0
334 44 -42 0
334 -44 42 0
-334 44 42 0
-334 -44 -42 0
-336 335 0
-336 40 0
-336 39 -42 0
-336 -39 42 0
336 -335 39 42 -40 0
336 -335 -39 -42 -40 0
338 335 -39 0
338 -335 39 0
-338 335 39 0
-338 -335 -39 0
337 42 -40 0
337 -42 40 0
-337 42 40 0
-337 -42 -40 0
-339 338 0
-339 38 0
-339 37 -40 0
-339 -37 40 0
339 -338 37 40 -38 0
339 -338 -37 -40 -38 0
341 338 -37 0
341 -338 37 0
-341 338 37 0
-341 -338 -37 0
340 40 -38 0
340 -40 38 0
-340 40 38 0
-340 -40 -38 0
-342 341 0
-342 36 0
-342 35 -38 0
-342 -35 38 0
342 -341 35 38 -36 0
342 -341 -35 -38 -36 0
344 341 -35 0
344 -341 35 0
-344 341 35 0
-344 -341 -35 0
343 38 -36 0
343 -38 36 0
-343 38 36 0
-343 -38 -36 0
-345 344 0
-345 34 0
-345 33 -36 0
-345 -33 36 0
345 -344 33 36 -34 0
345 -344 -33 -36 -34 0
347 344 -33 0
347 -344 33 0
-347 344 33 0
-347 -344 -33 0
346 36 -34 0
346 -36 34 0
-346 36 34 0
-346 -36 -34 0
-348 347 0
-348 32 0
-348 31 -34 0
-348 -31 34 0
348 -347 31 34 -32 0
348 -347 -31 -34 -32 0
350 347 -31 0
350 -347 31 0
-350 347 31 0
-350 -347 -31 0
349 34 -32 0
349 -34 32 0
-349 34 32 0
-349 -34 -32 0
-351 350 0
-351 30 0
-351 29 -32 0
-351 -29 32 0
351 -350 29 32 -30 0
351 -350 -29 -32 -30 0
353 350 -29 0
353 -350 29 0
-353 350 29 0
-353 -350 -29 0
352 32 -30 0
352 -32 30 0
-352 32 30 0
-352 -32 -30 0
-354 353 0
-354 28 0
-354 27 -30 0
-354 -27 30 0
354 -353 27 30 -28 0
354 -353 -27 -30 -28 0
356 353 -27 0
356 -353 27 0
-356 353 27 0
-356 -353 -27 0
355 30 -28 0
355 -30 28 0
-355 30 28 0
-355 -30 -28 0
-357 356 0
-357 26 0
-357 25 -28 0
-357 -25 28 0
357 -356 25 28 -26 0
357 -356 -25 -28 -26 0
359 356 -25 0
359 -356 25 0
-359 356 25 0
-359 -356 -25 0
358 28 -26 0
358 -28 26 0
-358 28 26 0
-358 -28 -26 0
-360 359 0
-360 24 0
-360 23 -26 0
-360 -23 26 0
360 -359 23 26 -24 0
360 -359 -23 -26 -24 0
362 359 -23 0
362 -359 23 0
-362 359 23 0
-362 -359 -23 0
361 26 -24 0
361 -26 24 0
-361 26 24 0
-361 -26 -24 0
-363 362 0
-363 22 0
-363 21 -24 0
-363 -21 24 0
363 -362 21 24 -22 0
363 -362 -21 -24 -22 0
365 362 -21 0
365 -362 21 0
-365 362 21 0
-365 -362 -21 0
364 24 -22 0
364 -24 22 0
-364 24 22 0
-364 -24 -22 0
-366 365 0
-366 20 0
-366 19 -22 0
-366 -19 22 0
366 -365 19 22 -20 0
366 -365 -19 -22 -20 0
368 365 -19 0
368 -365 19 0
-368 365 19 0
-368 -365 -19 0
367 22 -20 0
367 -22 20 0
-367 22 20 0
-367 -22 -20 0
-369 368 0
-369 18 0
-369 17 -20 0
-369 -17 20 0
369 -368 17 20 -18 0
369 -368 -17 -20 -18 0
371 368 -17 0
371 -368 17 0
-371 368 17 0
-371 -368 -17 0
370 20 -18 0
370 -20 18 0
-370 20 18 0
-370 -20 -18 0
-372 371 0
-372 16 0
-372 15 -18 0
-372 -15 18 0
372 -371 15 18 -16 0
372 -371 -15 -18 -16 0
374 371 -15 0
374 -371 15 0
-374 371 15 0
-374 -371 -15 0
373 18 -16 0
373 -18 16 0
-373 18 16 0
-373 -18 -16 0
-375 374 0
-375 14 0
-375 13 -16 0
-375 -13 16 0
375 -374 13 16 -14 0
375 -374 -13 -16 -14 0
377 374 -13 0
377 -374 13 0
-377 374 13 0
-377 -374 -13 0
376 16 -14 0
376 -16 14 0
-376 16 14 0
-376 -16 -14 0
-378 377 0
-378 12 0
-378 11 -14 0
-378 -11 14 0
378 -377 11 14 -12 0
378 -377 -11 -14 -12 0
380 377 -11 0
380 -377 11 0
-380 377 11 0
-380 -377 -11 0
379 14 -12 0
379 -14 12 0
-379 14 12 0
-379 -14 -12 0
-381 380 0
-381 10 0
-381 9 -12 0
-381 -9 12 0
381 -380 9 12 -10 0
381 -380 -9 -12 -10 0
383 380 -9 0
383 -380 9 0
-383 380 9 0
-383 -380 -9 0
382 12 -10 0
382 -12 10 0
-382 12 10 0
-382 -12 -10 0
-384 383 0
-384 8 0
-384 7 -10 0
-384 -7 10 0
384 -383 7 10 -8 0
384 -383 -7 -10 -8 0
386 383 -7 0
386 -383 7 0
-386 383 7 0
-386 -383 -7 0
385 10 -8 0
385 -10 8 0
-385 10 8 0
-385 -10 -8 0
-387 386 0
-387 6 0
-387 5 -8 0
-387 -5 8 0
387 -386 5 8 -6 0
387 -386 -5 -8 -6 0
389 386 -5 0
389 -386 5 0
-389 386 5 0
-389 -386 -5 0
388 8 -6 0
388 -8 6 0
-388 8 6 0
-388 -8 -6 0
-390 389 0
-390 4 0
-390 3 -6 0
-390 -3 6 0
390 -389 3 6 -4 0
390 -389 -3 -6 -4 0
392 389 -3 0
392 -389 3 0
-392 389 3 0
-392 -389 -3 0
391 6 -4 0
391 -6 4 0
-391 6 4 0
-391 -6 -4 0
-393 392 0
-393 2 0
-393 1 -4 0
-393 -1 4 0
393 -392 1 4 -2 0
393 -392 -1 -4 -2 0
395 392 -1 0
395 -392 1 0
-395 392 1 0
-395 -392 -1 0
394 4 -2 0
394 -4 2 0
-394 4 2 0
-394 -4 -2 0
-395 0
-392 0
-394 0
-389 0
-391 0
-386 0
-388 0
-383 0
-385 0
-380 0
-382 0
-377 0
-379 0
-374 0
-376 0
-371 0
-373 0
-368 0
-370 0
-365 0
-367 0
-362 0
-364 0
-359 0
-361 0
-356 0
-358 0
-353 0
-355 0
-350 0
-352 0
-347 0
-349 0
-344 0
-346 0
-341 0
-343 0
-338 0
-340 0
-335 0
-337 0
-332 0
-334 0
-329 0
-331 0
-326 0
-328 0
-323 0
-325 0
-320 0
-322 0
-317 0
-319 0
-314 0
-316 0
-311 0
-313 0
-308 0
-310 0
-305 0
-307 0
-302 0
-304 0
-299 0
-301 0
-296 0
-298 0
-293 0
-295 0
-290 0
-292 0
-287 0
-289 0
-284 0
-286 0
-281 0
-283 0
-278 0
-280 0
-275 0
-277 0
-272 0
-274 0
-269 0
-271 0
-266 0
-268 0
-263 0
-265 0
-260 0
-262 0
-257 0
-259 0
-254 0
-256 0
-251 0
-253 0
-248 0
-250 0
-245 0
-247 0
-242 0
-244 0
-239 0
-241 0
-236 0
-238 0
-233 0
-235 0
-230 0
-232 0
-227 0
-229 0
-224 0
-226 0
-221 0
-223 0
-218 0
-220 0
-215 0
-217 0
-212 0
-214 0
-209 0
-211 0
-206 0
-208 0
-203 0
-205 0
-200 0
-202 0
-197 0
-199 0
-194 0
-196 0
-191 0
-193 0
-188 0
-190 0
-185 0
-187 0
-182 0
-184 0
-179 0
-181 0
-176 0
-178 0
-173 0
-175 0
-170 0
-172 0
-167 0
-169 0
-160 0
-166 0
